<?xml version="1.0" encoding="UTF-8"?><osil xmlns="os.optimizationservices.org" xmlns:xsi="http://www.w3.org/2001/XMLSchema-instance" xsi:schemaLocation="os.optimizationservices.org http://www.optimizationservices.org/schemas/2.0/OSiL.xsd"><instanceHeader><name>nvs21</name></instanceHeader><instanceData><variables numberOfVariables="3"><var name="i1" type="I" ub="200"/><var name="i2" type="I" ub="200"/><var name="x3" ub=".2"/></variables><objectives><obj maxOrMin="min" name="defObj_objvar" numberOfObjCoef="0"/></objectives><constraints numberOfConstraints="2"><con name="e1" lb="-675"/><con name="e2" lb="-.419"/></constraints><nonlinearExpressions numberOfNonlinearExpressions="3"><nl idx="-1"><product><power><variable idx="0"/><number value="4"/></power><number value="-2.01e-3"/><variable idx="1"/><square><variable idx="2"/></square></product></nl><nl idx="0"><product><square><variable idx="0"/></square><variable idx="1" coef="-1"/></product></nl><nl idx="1"><product><square><variable idx="0"/></square><number value="-.1"/><square><variable idx="2"/></square></product></nl></nonlinearExpressions></instanceData></osil>